12470.0
1 1 1 1 1 1 1 1 0 1 0 1 1 1 1 1 1 1 1 1 
64 
58 86 89 96 98 
61 66 79 90 91 94 
24 56 57 73 74 76 85 
51 
0 1 2 3 4 5 6 7 44 45 54 67 69 
59 68 72 77 78 87 97 
11 12 13 14 15 16 46 52 

25 26 27 28 29 30 31 32 

55 
17 18 19 20 23 47 
21 22 48 63 65 82 
80 
33 49 50 62 75 83 84 88 
99 
70 92 93 95 
34 35 36 37 38 39 40 41 42 43 53 60 71 
8 9 10 81 
